TYPE : Vertex Cover
DIMENSION: 39
EDGE_DATA_SECTION:
0 2
0 32
0 35
0 36
1 10
1 18
1 30
1 32
2 26
2 31
2 32
3 33
3 38
4 17
5 16
5 17
5 24
6 28
6 30
6 37
7 29
7 34
7 38
8 18
8 29
8 31
8 37
9 16
9 22
9 33
9 37
9 38
10 11
10 14
10 20
10 37
11 27
11 29
13 21
13 23
13 27
13 29
13 32
14 18
14 28
14 36
15 16
16 18
16 25
16 30
16 33
17 35
18 20
18 21
18 24
19 21
19 35
20 30
21 22
21 25
21 31
22 32
22 33
23 30
24 28
26 32
26 34
26 36
26 37
27 31
27 34
28 34
29 36
29 37
30 33
35 38
-1
VERTEX_DEGREE:
4.0 4.0 4.0 2.0 1.0 3.0 3.0 3.0 4.0 5.0 5.0 3.0 0.0 5.0 4.0 1.0 7.0 3.0 7.0 2.0 3.0 6.0 4.0 2.0 3.0 2.0 5.0 4.0 4.0 6.0 6.0 4.0 6.0 5.0 4.0 4.0 4.0 6.0 4.0
VERTEX_COVER:
2 10 16 17 18 21 22 23 24 27 28 29 30 31 32 33 34 35 36 37 38
EOF
